% Data file generated from RandomInstances/10_0.05_1.col DIMACS file
size = 10;

chi = 0;

adjacency = [|0,0,0,0,0,0,0,0,0,1,
|0,0,0,0,0,0,0,0,0,0,
|0,0,0,0,0,0,0,0,0,0,
|0,0,0,0,0,0,0,0,0,0,
|0,0,0,0,0,0,0,0,0,0,
|0,0,0,0,0,0,0,0,0,0,
|0,0,0,0,0,0,0,0,0,0,
|0,0,0,0,0,0,0,0,0,0,
|0,0,0,0,0,0,0,0,0,0,
|1,0,0,0,0,0,0,0,0,0,
|];